atom_style full
units           real
bond_style      hybrid harmonic
angle_style     hybrid harmonic
dihedral_style  hybrid fourier
improper_style  hybrid harmonic
pair_style      hybrid lj/charmm/coul/long 9.0 10.0 10.0
kspace_style    pppm 0.0001
pair_modify     mix arithmetic
atom_style full
