  variable          T_sample      equal _T_SAMPLE    # Temperature
  variable          t_run  equal _N_STEPS     # number of MD steps
  variable          t_print equal ${t_run}/200  #how often to print histogram
  variable          n_new_types equal _N_NEW_TYPES
  variable          t_restart equal _STEPS_RESTART

  variable eta_lj equal 0.1
  variable m_lj equal 1
  variable lambda_end_lj equal 0.9
  variable eta_c equal 0.1
  variable m_c equal 2
  variable lambda_end_c equal 0.7
  variable alpha equal 22.0
  variable lambda equal ramp(0.0,1.0)

  variable scale_gauss equal "v_alpha * v_lambda^2 * (1.0 - v_lambda)^3"
  variable scale_lj equal "(v_lambda < v_lambda_end_lj) * ((1.0 - v_eta_lj^v_m_lj) * (-3.0 * ((v_lambda / v_lambda_end_lj)^4) + 8.0 * ((v_lambda / v_lambda_end_lj)^3) - 6.0 * ((v_lambda / v_lambda_end_lj)^2)) + 1.0) + (v_lambda >= v_lambda_end_lj) * v_eta_lj^v_m_lj"
  variable scale_coulomb equal "(v_lambda < v_lambda_end_c) * ((1.0 - v_eta_c^v_m_c) * (-3.0 * ((v_lambda / v_lambda_end_c)^4) + 8.0 * ((v_lambda / v_lambda_end_c)^3) - 6.0*((v_lambda / v_lambda_end_c)^2)) + 1.0) + (v_lambda >= v_lambda_end_c) * v_eta_c^v_m_c"

  # Load old function definitions.
  include "new_system.in.init"

  # Read data.
  read_data "cluster_equi_nvt.data" extra/atom/types ${n_new_types} extra/bond/types 0 extra/angle/types 0 extra/dihedral/types 0 extra/improper/types 0

  # Switch to hybrid/scaled style from original hybrid style.
  # This allows to adapt the LJ and Coulombic interactions differently.
  # Parameters taken from new_system.in.init
  pair_style hybrid/scaled v_scale_lj lj/charmm 9.0 10.0 10.0 v_scale_coulomb coul/long/charmm 9.0 10.0 10.0 v_scale_gauss gauss 10.0

  # load force field parameters
  include "system.in.settings.hybrid_overlay"

  # load additional atoms and force field parameters
  include "create_atoms.txt"

  kspace_style    pppm 0.0001
  comm_style tiled
  balance 1.1 rcb

  reset_timestep    0

#--------------------------- Thermo stylepa and settings -------------------------#
  timestep          1.0
  compute mobileTemp mobile temp
  compute staticTemp stat temp
  thermo_style      custom step time vol temp press ke pe etotal epair emol vol density cella cellb cellc cellalpha cellbeta cellgamma c_mobileTemp c_staticTemp v_scale_lj v_scale_coulomb v_scale_gauss v_lambda
  thermo            200


#--------------------------- Computes ------------------------------------------#

  compute       cc1 all chunk/atom molecule
  compute myChunk all temp/chunk cc1 temp kecom internal

  fix 1 all ave/time ${t_print} 1 ${t_print} c_myChunk[*] file tmp.out mode vector

  dump              d2 all custom ${t_print} traj.dump id mol type xu yu zu

#---------------------- Thermostat & Barostat ----------------------------------#

fix              f2 mobile nvt temp ${T_sample} ${T_sample} $(100.0*dt)
compute      tempcom mobile temp/com
fix_modify   f2 temp tempcom

fix f3 mobile adapt 1 kspace v_scale_coulomb scale yes

  restart         ${t_restart} stage_one.restart

  run               ${t_run}

  write_data        cluster_stage_one_generate.data

  write_restart   cluster_stage_one_generate.restart
