  variable          T_sample      equal _T_SAMPLE    # Temperature
  variable          T_init      equal _T_INIT    # Initial Temperature
  variable          t_run  equal _N_STEPS     # number of MD steps
  variable          t_equil equal _N_EQUIL     # number of equilibration steps
  variable          t_print equal ${t_run}/200  #how often to print histogram

  read_restart _RESTART_FILE

  # load force field parameters
  include "system.in.settings"

  kspace_style    pppm 0.0001
  comm_style tiled
  balance 1.1 rcb

  reset_timestep    0

#--------------------------- Thermo stylepa and settings -------------------------#
  timestep          1.0
  thermo_style      custom step time vol temp press ke pe etotal epair emol vol density cella cellb cellc cellalpha cellbeta cellgamma
  thermo            200


#--------------------------- Computes ------------------------------------------#

  compute       cc1 all chunk/atom molecule
  compute myChunk all temp/chunk cc1 temp kecom internal

  fix 1 all ave/time ${t_print} 1 ${t_print} c_myChunk[*] file tmp.out mode vector
  fix 2 all momentum 100 linear 1 1 1 angular rescale

  dump              d2 all custom ${t_print} traj.dump id mol element xu yu zu

  dump_modify       d2 element 1 2 3

#--------------------------- Pre-Ramp Thermalization ------------------------#
  #_NPT_ISO fix f11 all npt temp ${T_init} ${T_sample} $(100.0*dt) iso 1.0 1.0 $(1000.0*dt)
  #_NPT_ANISO fix f11 all npt temp ${T_init} ${T_sample} $(100.0*dt) aniso 1.0 1.0 $(1000.0*dt)
  #_NPT_TRI fix f11 all npt temp ${T_init} ${T_sample} $(100.0*dt) tri 1.0 1.0 $(1000.0*dt)
  #_NPT_TRI fix recenter all recenter INIT INIT INIT units box

  run ${t_equil}  # equilibrate
  unfix f11
  #_NPT_TRI unfix recenter
  write_data cluster_equi.data

#---------------------- Thermostat & Barostat ----------------------------------#
#_NPT_ISO  fix               f2 all npt temp ${T_sample} ${T_sample} $(100.0*dt) iso 1.0 1.0 $(1000.0*dt)
#_NPT_ANISO  fix             f2 all npt temp ${T_sample} ${T_sample} $(100.0*dt) aniso 1.0 1.0 $(1000.0*dt)
#_NPT_TRI fix                f2 all npt temp ${T_sample} ${T_sample} $(100.0*dt) tri 1.0 1.0 $(1000.0*dt)
#_NPT_TRI fix recenter2 all recenter INIT INIT INIT units box

  run               ${t_run}

  write_data        cluster_equi.data

  write_restart   cluster_equi.restart
